NAME: instance_9
TYPE: TSP
COMMENT: 9-city problem
DIMENSION: 9
EDGE_WEIGHT_TYPE: EUC_2D
NODE_COORD_SECTION
0 619 780
1 770 730
2 595 599
3 996 555
4 324 668
5 794 564
6 896 913
7 245 287
8 96 454
EOF
